DIMACS_lns/graph-1000-221.col
p edge 1000 1841
e 3 277
e 3 904
e 3 908
e 3 274
e 4 92
e 4 781
e 4 657
e 6 962
e 6 736
e 6 426
e 6 518
e 7 577
e 7 869
e 7 755
e 8 669
e 8 812
e 8 332
e 9 878
e 9 620
e 9 323
e 10 247
e 10 844
e 10 172
e 10 985
e 10 368
e 10 453
e 10 148
e 12 421
e 12 573
e 12 578
e 12 886
e 12 87
e 12 219
e 13 709
e 13 245
e 13 899
e 13 987
e 14 266
e 14 442
e 14 472
e 14 542
e 14 752
e 16 806
e 16 313
e 16 318
e 17 554
e 17 238
e 17 754
e 19 843
e 19 483
e 19 529
e 19 812
e 19 799
e 20 715
e 20 931
e 20 976
e 20 217
e 21 959
e 21 585
e 21 620
e 21 102
e 21 734
e 22 461
e 22 487
e 22 894
e 24 802
e 24 349
e 24 112
e 24 146
e 25 597
e 25 742
e 25 519
e 25 908
e 25 827
e 25 62
e 25 385
e 25 452
e 26 275
e 26 484
e 26 653
e 26 240
e 27 952
e 27 752
e 27 724
e 27 675
e 27 66
e 27 834
e 27 37
e 28 981
e 28 323
e 28 630
e 28 633
e 28 233
e 28 336
e 28 894
e 28 241
e 28 441
e 29 144
e 29 921
e 29 413
e 29 385
e 29 110
e 29 146
e 31 842
e 31 76
e 31 110
e 32 848
e 32 938
e 32 255
e 32 979
e 32 973
e 35 37
e 35 784
e 35 980
e 37 674
e 37 225
e 38 654
e 38 822
e 38 574
e 38 902
e 38 219
e 38 702
e 38 725
e 39 769
e 39 913
e 39 736
e 39 681
e 39 689
e 39 760
e 39 256
e 40 51
e 40 738
e 40 327
e 40 264
e 40 421
e 41 402
e 41 747
e 41 438
e 41 495
e 42 646
e 42 477
e 42 580
e 42 724
e 42 891
e 42 942
e 43 339
e 43 278
e 43 421
e 43 62
e 43 360
e 44 927
e 44 802
e 44 879
e 44 564
e 44 969
e 44 966
e 44 948
e 44 613
e 45 585
e 45 773
e 45 623
e 45 677
e 45 269
e 47 681
e 47 789
e 47 422
e 47 815
e 47 528
e 47 584
e 48 869
e 48 850
e 48 677
e 48 418
e 48 230
e 49 433
e 49 415
e 49 649
e 50 216
e 50 708
e 50 428
e 50 224
e 50 679
e 50 608
e 50 159
e 51 627
e 51 980
e 51 154
e 52 80
e 52 895
e 52 449
e 52 202
e 53 464
e 53 975
e 53 265
e 54 100
e 54 796
e 54 895
e 55 332
e 55 626
e 55 555
e 55 59
e 56 698
e 56 499
e 56 438
e 56 878
e 56 731
e 57 288
e 57 601
e 57 469
e 58 629
e 58 723
e 58 78
e 58 342
e 58 321
e 58 424
e 59 279
e 59 490
e 59 920
e 59 381
e 59 106
e 60 912
e 60 221
e 60 835
e 60 395
e 60 291
e 60 222
e 62 369
e 62 812
e 63 226
e 63 637
e 63 708
e 63 130
e 63 490
e 63 539
e 63 135
e 64 899
e 64 638
e 64 227
e 64 238
e 64 679
e 64 233
e 65 947
e 65 223
e 65 325
e 66 995
e 66 601
e 66 845
e 66 684
e 67 623
e 67 976
e 67 800
e 67 982
e 67 749
e 68 378
e 68 966
e 68 265
e 70 194
e 70 953
e 70 472
e 70 559
e 71 308
e 71 325
e 71 375
e 73 396
e 73 713
e 73 642
e 75 552
e 75 139
e 75 813
e 76 560
e 76 155
e 76 804
e 76 287
e 76 884
e 76 584
e 77 315
e 77 414
e 77 679
e 78 552
e 78 895
e 78 854
e 78 195
e 79 221
e 79 520
e 79 719
e 79 799
e 80 549
e 80 444
e 81 924
e 81 525
e 81 938
e 81 681
e 83 797
e 83 281
e 83 607
e 83 182
e 84 869
e 84 292
e 84 712
e 84 370
e 84 161
e 87 593
e 87 716
e 87 878
e 87 781
e 87 390
e 87 324
e 89 525
e 89 247
e 89 411
e 89 798
e 89 616
e 89 855
e 89 906
e 89 891
e 91 599
e 91 549
e 91 385
e 91 144
e 92 588
e 92 775
e 93 609
e 93 394
e 93 914
e 93 760
e 93 417
e 93 579
e 94 987
e 94 345
e 94 453
e 94 356
e 94 737
e 95 101
e 95 97
e 95 440
e 95 748
e 96 620
e 96 936
e 96 972
e 97 375
e 97 788
e 97 539
e 99 999
e 99 156
e 99 452
e 99 284
e 100 957
e 100 278
e 100 369
e 100 439
e 100 680
e 100 155
e 101 676
e 101 403
e 101 696
e 101 705
e 102 965
e 102 455
e 102 519
e 102 862
e 102 601
e 103 466
e 103 348
e 103 569
e 103 462
e 103 858
e 103 529
e 104 496
e 104 915
e 104 295
e 104 700
e 104 628
e 104 552
e 104 788
e 105 415
e 105 209
e 105 948
e 105 776
e 105 790
e 106 474
e 106 254
e 106 806
e 106 934
e 106 519
e 106 943
e 106 260
e 106 951
e 108 671
e 108 901
e 108 793
e 108 590
e 108 338
e 110 552
e 110 860
e 111 159
e 111 869
e 111 696
e 111 723
e 111 659
e 111 877
e 112 508
e 112 837
e 112 666
e 113 420
e 113 948
e 113 512
e 113 913
e 114 454
e 114 798
e 114 809
e 118 808
e 118 148
e 118 171
e 118 371
e 118 394
e 119 429
e 119 339
e 119 520
e 119 954
e 120 878
e 120 383
e 120 228
e 122 150
e 122 400
e 122 601
e 122 552
e 123 899
e 123 483
e 123 671
e 124 766
e 124 879
e 124 424
e 125 753
e 125 542
e 125 863
e 125 871
e 125 615
e 126 265
e 126 547
e 126 747
e 126 649
e 126 785
e 127 217
e 127 750
e 127 184
e 127 350
e 128 205
e 128 723
e 128 302
e 128 954
e 128 289
e 130 484
e 130 520
e 130 651
e 130 936
e 130 184
e 133 634
e 133 267
e 133 768
e 133 168
e 133 331
e 133 835
e 135 480
e 135 834
e 136 783
e 136 327
e 136 725
e 137 495
e 137 745
e 137 620
e 137 258
e 139 383
e 139 302
e 140 323
e 140 932
e 140 534
e 140 466
e 140 882
e 143 514
e 143 592
e 143 657
e 144 380
e 144 282
e 144 844
e 144 834
e 145 975
e 145 616
e 145 248
e 145 499
e 146 518
e 146 357
e 147 748
e 147 255
e 147 675
e 147 504
e 147 165
e 147 331
e 147 358
e 148 302
e 148 537
e 148 323
e 148 974
e 148 490
e 148 199
e 149 610
e 149 296
e 149 466
e 149 315
e 149 572
e 149 993
e 149 429
e 149 639
e 150 513
e 150 737
e 150 467
e 153 172
e 153 618
e 153 707
e 153 723
e 154 240
e 154 599
e 154 850
e 154 937
e 154 580
e 154 925
e 155 695
e 155 743
e 155 560
e 156 562
e 156 708
e 157 668
e 157 654
e 157 517
e 158 948
e 158 159
e 158 393
e 158 668
e 159 227
e 159 606
e 159 238
e 160 766
e 160 829
e 160 717
e 160 422
e 161 583
e 161 191
e 161 575
e 161 783
e 165 982
e 165 898
e 166 279
e 166 802
e 166 914
e 168 934
e 168 965
e 168 579
e 168 719
e 170 710
e 170 459
e 170 683
e 170 959
e 170 984
e 170 808
e 170 184
e 171 312
e 171 876
e 171 278
e 171 668
e 172 677
e 172 674
e 172 351
e 172 253
e 172 913
e 174 353
e 174 264
e 174 410
e 175 819
e 175 411
e 175 578
e 175 669
e 175 916
e 175 529
e 177 474
e 177 743
e 177 444
e 179 706
e 179 685
e 179 194
e 179 207
e 180 390
e 180 292
e 180 955
e 180 913
e 180 201
e 182 244
e 182 340
e 182 671
e 182 188
e 182 800
e 182 837
e 183 735
e 183 798
e 183 409
e 183 485
e 183 721
e 186 603
e 186 215
e 186 829
e 187 359
e 187 244
e 187 539
e 188 348
e 188 718
e 188 881
e 188 592
e 188 618
e 188 440
e 189 462
e 189 881
e 189 217
e 191 441
e 191 879
e 194 646
e 194 293
e 194 367
e 194 379
e 194 772
e 194 400
e 194 969
e 195 794
e 195 795
e 195 230
e 199 845
e 199 414
e 199 934
e 199 868
e 200 395
e 200 704
e 200 723
e 200 995
e 200 394
e 200 268
e 200 510
e 200 937
e 201 938
e 201 583
e 202 315
e 202 756
e 202 897
e 202 452
e 202 860
e 202 736
e 202 958
e 202 859
e 203 955
e 203 265
e 203 538
e 203 908
e 203 930
e 204 649
e 204 487
e 204 664
e 204 612
e 204 382
e 205 339
e 205 878
e 205 413
e 205 224
e 207 438
e 207 787
e 207 350
e 209 973
e 209 562
e 209 695
e 209 668
e 209 351
e 212 608
e 212 580
e 212 715
e 212 353
e 212 859
e 212 658
e 212 313
e 213 500
e 213 266
e 213 332
e 213 842
e 213 907
e 215 592
e 215 978
e 215 695
e 215 551
e 216 266
e 216 530
e 216 623
e 216 552
e 217 822
e 217 928
e 217 845
e 217 294
e 219 612
e 219 462
e 220 843
e 220 482
e 220 897
e 220 527
e 220 310
e 221 510
e 221 484
e 221 362
e 222 902
e 222 906
e 222 575
e 222 544
e 223 575
e 223 818
e 223 981
e 224 358
e 224 443
e 224 943
e 225 438
e 225 497
e 225 945
e 225 282
e 225 872
e 226 438
e 226 982
e 227 315
e 227 383
e 227 651
e 228 417
e 228 695
e 228 886
e 230 572
e 230 915
e 231 874
e 231 757
e 231 630
e 231 474
e 232 769
e 232 465
e 232 906
e 232 531
e 233 573
e 233 723
e 235 815
e 235 855
e 235 516
e 235 604
e 236 842
e 236 845
e 236 980
e 236 509
e 236 735
e 236 409
e 236 611
e 238 303
e 238 937
e 239 867
e 239 684
e 239 360
e 239 292
e 239 267
e 240 581
e 240 665
e 240 464
e 240 676
e 240 983
e 241 287
e 241 595
e 241 707
e 243 276
e 243 275
e 243 418
e 243 400
e 244 394
e 244 807
e 244 310
e 245 574
e 245 308
e 245 955
e 247 313
e 247 482
e 247 731
e 248 587
e 248 338
e 248 868
e 248 960
e 250 523
e 250 751
e 250 923
e 250 705
e 250 332
e 250 421
e 252 466
e 252 760
e 252 670
e 252 588
e 253 985
e 253 820
e 253 702
e 253 806
e 254 856
e 254 738
e 254 718
e 254 728
e 254 677
e 255 855
e 255 551
e 255 393
e 255 737
e 256 833
e 256 904
e 258 606
e 258 655
e 258 410
e 258 783
e 258 918
e 259 392
e 259 996
e 259 721
e 260 516
e 260 756
e 260 851
e 260 534
e 260 731
e 261 712
e 261 389
e 261 714
e 261 860
e 262 425
e 262 415
e 262 806
e 262 421
e 263 529
e 263 927
e 263 853
e 263 323
e 264 350
e 264 420
e 264 770
e 264 589
e 265 418
e 265 694
e 265 636
e 266 680
e 266 943
e 266 974
e 267 547
e 267 727
e 268 292
e 268 713
e 268 287
e 268 303
e 269 573
e 269 999
e 269 836
e 269 824
e 269 293
e 269 623
e 271 917
e 271 698
e 271 604
e 273 706
e 273 529
e 273 474
e 274 529
e 274 630
e 275 610
e 276 842
e 276 952
e 276 766
e 276 411
e 277 593
e 277 304
e 277 522
e 277 282
e 278 629
e 278 867
e 278 608
e 278 724
e 278 428
e 278 872
e 278 498
e 279 466
e 279 769
e 279 972
e 279 513
e 279 879
e 281 480
e 281 878
e 281 686
e 281 521
e 282 807
e 282 715
e 282 482
e 282 707
e 284 378
e 284 526
e 284 310
e 285 651
e 285 846
e 285 745
e 287 385
e 288 489
e 288 324
e 288 436
e 288 879
e 289 985
e 289 725
e 289 822
e 290 583
e 290 799
e 290 543
e 291 737
e 291 551
e 292 375
e 293 777
e 293 429
e 293 868
e 293 996
e 293 671
e 293 620
e 293 347
e 294 968
e 294 564
e 294 346
e 295 478
e 295 358
e 295 340
e 295 812
e 296 808
e 296 834
e 296 404
e 296 581
e 296 812
e 299 885
e 299 420
e 299 356
e 301 676
e 301 359
e 301 723
e 301 822
e 301 809
e 303 482
e 304 979
e 304 372
e 304 523
e 305 636
e 305 532
e 305 307
e 307 346
e 307 541
e 307 553
e 308 515
e 308 553
e 308 538
e 309 929
e 309 547
e 309 815
e 309 477
e 309 999
e 310 945
e 310 829
e 312 495
e 312 996
e 313 663
e 313 933
e 315 436
e 315 572
e 315 984
e 315 834
e 318 504
e 318 554
e 318 930
e 318 629
e 318 411
e 321 384
e 321 947
e 321 819
e 323 798
e 323 776
e 323 900
e 323 504
e 324 372
e 324 542
e 324 802
e 324 701
e 325 750
e 325 541
e 325 956
e 325 385
e 325 782
e 326 811
e 326 351
e 326 950
e 326 358
e 327 398
e 328 942
e 328 930
e 328 875
e 328 461
e 328 373
e 329 528
e 329 769
e 329 800
e 329 905
e 331 698
e 331 976
e 331 572
e 331 967
e 331 743
e 331 350
e 331 677
e 332 750
e 332 498
e 332 489
e 332 716
e 332 862
e 333 917
e 333 511
e 333 516
e 333 396
e 333 360
e 333 600
e 333 450
e 336 504
e 336 390
e 338 946
e 338 798
e 338 966
e 339 382
e 339 702
e 339 607
e 339 396
e 339 428
e 339 507
e 340 883
e 342 566
e 342 811
e 342 606
e 342 389
e 343 579
e 343 603
e 343 742
e 344 995
e 344 625
e 344 851
e 344 550
e 344 425
e 345 884
e 345 464
e 345 414
e 346 532
e 346 529
e 347 776
e 347 658
e 347 455
e 348 952
e 349 612
e 349 927
e 349 639
e 349 974
e 349 694
e 350 398
e 350 449
e 350 362
e 350 645
e 351 903
e 351 367
e 351 399
e 353 769
e 353 737
e 355 954
e 355 366
e 355 421
e 356 866
e 356 637
e 356 650
e 357 768
e 357 521
e 358 694
e 358 566
e 358 579
e 359 440
e 359 871
e 360 668
e 362 797
e 366 724
e 366 757
e 367 842
e 367 989
e 368 466
e 368 670
e 369 499
e 369 452
e 369 619
e 369 665
e 370 717
e 370 432
e 370 976
e 371 549
e 371 812
e 371 695
e 371 664
e 371 529
e 371 743
e 372 674
e 372 889
e 373 554
e 373 985
e 373 559
e 373 498
e 373 813
e 373 606
e 373 442
e 375 450
e 375 770
e 375 592
e 375 878
e 375 562
e 375 474
e 376 827
e 376 537
e 376 784
e 378 510
e 378 997
e 379 979
e 379 730
e 379 542
e 379 982
e 379 450
e 379 764
e 380 752
e 380 546
e 380 803
e 380 587
e 381 803
e 381 414
e 382 850
e 383 749
e 384 898
e 384 560
e 384 469
e 384 967
e 385 916
e 385 925
e 386 516
e 386 496
e 386 738
e 387 993
e 387 978
e 387 886
e 387 890
e 389 716
e 389 990
e 389 406
e 389 674
e 390 426
e 390 922
e 390 713
e 390 572
e 392 603
e 392 930
e 392 996
e 392 841
e 392 898
e 392 964
e 392 787
e 393 753
e 393 996
e 393 458
e 394 627
e 394 501
e 394 737
e 395 519
e 395 452
e 396 953
e 396 785
e 396 616
e 396 638
e 398 729
e 398 866
e 399 762
e 399 468
e 399 877
e 400 409
e 400 917
e 401 920
e 401 993
e 401 520
e 401 620
e 401 499
e 402 899
e 402 523
e 403 983
e 403 469
e 404 932
e 404 535
e 406 455
e 406 595
e 406 834
e 408 808
e 408 950
e 408 429
e 408 689
e 409 712
e 409 653
e 409 415
e 410 938
e 410 883
e 410 529
e 411 669
e 411 955
e 411 606
e 413 657
e 413 544
e 413 543
e 413 710
e 414 829
e 414 997
e 417 901
e 417 551
e 418 549
e 418 715
e 418 456
e 418 521
e 418 657
e 419 507
e 419 502
e 419 727
e 420 464
e 420 933
e 420 797
e 421 951
e 421 869
e 422 799
e 424 736
e 424 579
e 424 554
e 425 979
e 425 522
e 426 546
e 428 746
e 429 446
e 429 770
e 429 856
e 432 487
e 432 904
e 433 452
e 433 480
e 434 989
e 434 597
e 434 996
e 434 856
e 434 694
e 435 664
e 435 559
e 435 964
e 435 866
e 436 566
e 436 603
e 436 713
e 436 458
e 437 721
e 437 530
e 437 594
e 438 609
e 438 757
e 438 611
e 438 897
e 439 712
e 439 826
e 439 637
e 440 788
e 440 527
e 440 818
e 441 641
e 441 609
e 441 484
e 441 934
e 442 788
e 443 915
e 443 728
e 443 859
e 443 931
e 444 497
e 444 751
e 444 975
e 446 944
e 446 623
e 446 987
e 449 483
e 450 620
e 450 960
e 452 956
e 452 750
e 452 608
e 452 683
e 453 654
e 453 712
e 453 695
e 454 980
e 454 594
e 454 675
e 454 884
e 455 555
e 455 788
e 456 826
e 456 672
e 456 944
e 458 587
e 458 996
e 459 965
e 459 909
e 459 764
e 461 514
e 464 710
e 465 611
e 465 728
e 465 619
e 465 685
e 466 706
e 466 577
e 467 616
e 467 783
e 468 727
e 468 731
e 468 755
e 468 730
e 468 495
e 469 583
e 469 982
e 472 891
e 472 882
e 472 702
e 472 872
e 474 795
e 477 660
e 477 890
e 478 666
e 478 628
e 478 707
e 480 925
e 480 782
e 480 590
e 482 752
e 482 974
e 482 593
e 484 599
e 485 714
e 485 882
e 487 773
e 489 666
e 489 590
e 495 918
e 495 630
e 496 586
e 496 782
e 497 675
e 497 900
e 497 665
e 498 566
e 498 903
e 498 613
e 498 535
e 499 844
e 499 667
e 500 534
e 500 704
e 500 811
e 501 983
e 501 989
e 502 856
e 502 747
e 504 866
e 504 919
e 504 913
e 504 972
e 507 580
e 507 522
e 508 753
e 508 544
e 508 770
e 509 709
e 509 600
e 509 589
e 510 676
e 510 844
e 510 727
e 510 574
e 510 672
e 510 947
e 511 529
e 511 725
e 511 595
e 512 842
e 512 579
e 512 990
e 512 746
e 513 653
e 514 721
e 515 878
e 515 669
e 516 921
e 516 808
e 517 557
e 517 539
e 517 907
e 518 586
e 518 698
e 518 979
e 519 881
e 519 734
e 519 884
e 519 534
e 520 555
e 521 931
e 521 826
e 523 884
e 523 848
e 523 835
e 523 713
e 525 660
e 525 857
e 526 754
e 526 637
e 526 843
e 527 958
e 528 577
e 528 841
e 529 945
e 530 633
e 530 627
e 530 753
e 530 976
e 530 829
e 531 969
e 531 816
e 532 757
e 532 863
e 532 622
e 534 812
e 534 578
e 534 910
e 535 790
e 536 822
e 536 975
e 536 701
e 536 872
e 537 578
e 537 714
e 537 626
e 537 950
e 537 636
e 538 797
e 538 866
e 539 623
e 541 959
e 541 581
e 542 586
e 542 876
e 543 869
e 544 735
e 544 851
e 544 677
e 546 586
e 546 976
e 546 818
e 547 813
e 549 669
e 550 907
e 550 909
e 550 918
e 551 754
e 551 685
e 551 884
e 553 913
e 554 581
e 555 869
e 557 794
e 557 957
e 558 590
e 558 796
e 558 591
e 558 933
e 559 630
e 559 804
e 559 960
e 559 664
e 560 929
e 560 812
e 560 585
e 560 754
e 560 958
e 561 574
e 561 569
e 561 905
e 562 716
e 562 620
e 564 585
e 564 735
e 566 937
e 569 846
e 572 857
e 572 934
e 573 717
e 573 894
e 574 777
e 574 984
e 574 969
e 574 827
e 575 757
e 575 848
e 577 737
e 577 686
e 579 899
e 579 836
e 580 641
e 580 976
e 583 746
e 583 670
e 583 794
e 584 588
e 584 875
e 584 783
e 584 694
e 585 753
e 585 934
e 586 775
e 587 954
e 587 638
e 588 979
e 588 598
e 589 889
e 589 929
e 589 705
e 590 945
e 591 793
e 591 962
e 591 886
e 592 615
e 592 827
e 593 756
e 594 895
e 594 966
e 594 609
e 595 809
e 597 886
e 598 608
e 598 656
e 599 756
e 599 874
e 599 995
e 599 952
e 599 979
e 600 613
e 601 971
e 601 753
e 603 982
e 603 691
e 603 616
e 604 837
e 606 776
e 606 667
e 606 641
e 607 770
e 607 683
e 607 736
e 608 922
e 609 820
e 609 619
e 610 737
e 610 723
e 612 683
e 615 683
e 616 806
e 616 826
e 616 694
e 618 705
e 619 724
e 619 878
e 619 871
e 620 881
e 620 921
e 622 848
e 622 772
e 623 944
e 623 802
e 625 714
e 625 859
e 625 729
e 626 650
e 627 766
e 627 980
e 627 936
e 627 858
e 628 820
e 629 859
e 629 728
e 630 956
e 630 755
e 630 735
e 633 651
e 634 800
e 634 909
e 637 871
e 638 904
e 639 877
e 642 777
e 642 710
e 645 840
e 645 695
e 645 660
e 646 738
e 650 974
e 653 906
e 654 677
e 655 971
e 655 843
e 656 730
e 656 790
e 657 841
e 658 856
e 658 917
e 658 730
e 659 833
e 659 955
e 660 749
e 660 840
e 663 824
e 663 843
e 663 783
e 664 908
e 664 859
e 666 890
e 667 919
e 670 889
e 670 879
e 671 833
e 671 916
e 672 813
e 675 924
e 675 889
e 676 725
e 677 950
e 679 699
e 679 754
e 680 715
e 683 775
e 683 948
e 684 713
e 686 844
e 689 811
e 689 781
e 691 993
e 691 853
e 694 708
e 695 995
e 695 973
e 696 723
e 696 912
e 699 913
e 699 795
e 700 719
e 700 901
e 701 883
e 704 917
e 704 764
e 705 826
e 706 713
e 707 999
e 707 875
e 708 916
e 708 715
e 709 802
e 709 772
e 712 923
e 712 715
e 712 962
e 712 943
e 713 937
e 713 927
e 713 784
e 713 998
e 713 947
e 715 974
e 715 898
e 715 987
e 716 812
e 718 968
e 718 993
e 718 957
e 719 904
e 721 967
e 723 979
e 723 948
e 723 998
e 723 760
e 724 813
e 724 841
e 724 978
e 725 732
e 725 858
e 727 914
e 727 964
e 728 997
e 728 960
e 728 764
e 729 816
e 729 732
e 730 922
e 732 929
e 734 762
e 734 973
e 734 750
e 735 903
e 742 892
e 742 953
e 743 905
e 745 789
e 747 846
e 748 881
e 750 925
e 750 918
e 750 770
e 751 972
e 757 858
e 757 910
e 762 973
e 762 857
e 764 999
e 764 871
e 768 956
e 768 844
e 768 942
e 769 886
e 770 902
e 773 862
e 775 947
e 775 952
e 776 804
e 776 907
e 776 912
e 776 799
e 781 820
e 782 858
e 782 877
e 782 937
e 783 833
e 784 899
e 784 910
e 785 953
e 785 947
e 787 928
e 787 807
e 787 799
e 787 842
e 789 915
e 790 836
e 793 801
e 795 862
e 795 801
e 796 917
e 796 996
e 796 816
e 800 990
e 800 813
e 801 808
e 802 874
e 803 919
e 804 954
e 811 824
e 812 867
e 813 918
e 815 859
e 819 981
e 820 892
e 820 824
e 820 886
e 822 965
e 822 850
e 824 876
e 829 841
e 834 882
e 834 924
e 835 851
e 836 955
e 837 866
e 840 932
e 840 848
e 840 903
e 841 942
e 842 866
e 842 885
e 843 989
e 850 957
e 851 862
e 853 902
e 854 925
e 854 982
e 858 900
e 863 976
e 863 985
e 869 924
e 871 892
e 875 966
e 875 967
e 876 971
e 882 998
e 883 938
e 885 959
e 889 918
e 900 946
e 902 951
e 904 916
e 904 927
e 904 925
e 905 981
e 905 912
e 907 980
e 907 931
e 908 980
e 908 946
e 908 947
e 910 922
e 910 996
e 913 984
e 914 959
e 917 953
e 919 946
e 920 998
e 920 968
e 923 928
e 929 962
e 932 969
e 934 997
e 937 942
e 942 993
e 953 974
e 984 998
