txt_Ins/graph-1000-221.txt
n 1000
e 2 276
e 2 903
e 2 907
e 2 273
e 3 91
e 3 780
e 3 656
e 5 961
e 5 735
e 5 425
e 5 517
e 6 576
e 6 868
e 6 754
e 7 668
e 7 811
e 7 331
e 8 877
e 8 619
e 8 322
e 9 246
e 9 843
e 9 171
e 9 984
e 9 367
e 9 452
e 9 147
e 11 420
e 11 572
e 11 577
e 11 885
e 11 86
e 11 218
e 12 708
e 12 244
e 12 898
e 12 986
e 13 265
e 13 441
e 13 471
e 13 541
e 13 751
e 15 805
e 15 312
e 15 317
e 16 553
e 16 237
e 16 753
e 18 842
e 18 482
e 18 528
e 18 811
e 18 798
e 19 714
e 19 930
e 19 975
e 19 216
e 20 958
e 20 584
e 20 619
e 20 101
e 20 733
e 21 460
e 21 486
e 21 893
e 23 801
e 23 348
e 23 111
e 23 145
e 24 596
e 24 741
e 24 518
e 24 907
e 24 826
e 24 61
e 24 384
e 24 451
e 25 274
e 25 483
e 25 652
e 25 239
e 26 951
e 26 751
e 26 723
e 26 674
e 26 65
e 26 833
e 26 36
e 27 980
e 27 322
e 27 629
e 27 632
e 27 232
e 27 335
e 27 893
e 27 240
e 27 440
e 28 143
e 28 920
e 28 412
e 28 384
e 28 109
e 28 145
e 30 841
e 30 75
e 30 109
e 31 847
e 31 937
e 31 254
e 31 978
e 31 972
e 34 36
e 34 783
e 34 979
e 36 673
e 36 224
e 37 653
e 37 821
e 37 573
e 37 901
e 37 218
e 37 701
e 37 724
e 38 768
e 38 912
e 38 735
e 38 680
e 38 688
e 38 759
e 38 255
e 39 50
e 39 737
e 39 326
e 39 263
e 39 420
e 40 401
e 40 746
e 40 437
e 40 494
e 41 645
e 41 476
e 41 579
e 41 723
e 41 890
e 41 941
e 42 338
e 42 277
e 42 420
e 42 61
e 42 359
e 43 926
e 43 801
e 43 878
e 43 563
e 43 968
e 43 965
e 43 947
e 43 612
e 44 584
e 44 772
e 44 622
e 44 676
e 44 268
e 46 680
e 46 788
e 46 421
e 46 814
e 46 527
e 46 583
e 47 868
e 47 849
e 47 676
e 47 417
e 47 229
e 48 432
e 48 414
e 48 648
e 49 215
e 49 707
e 49 427
e 49 223
e 49 678
e 49 607
e 49 158
e 50 626
e 50 979
e 50 153
e 51 79
e 51 894
e 51 448
e 51 201
e 52 463
e 52 974
e 52 264
e 53 99
e 53 795
e 53 894
e 54 331
e 54 625
e 54 554
e 54 58
e 55 697
e 55 498
e 55 437
e 55 877
e 55 730
e 56 287
e 56 600
e 56 468
e 57 628
e 57 722
e 57 77
e 57 341
e 57 320
e 57 423
e 58 278
e 58 489
e 58 919
e 58 380
e 58 105
e 59 911
e 59 220
e 59 834
e 59 394
e 59 290
e 59 221
e 61 368
e 61 811
e 62 225
e 62 636
e 62 707
e 62 129
e 62 489
e 62 538
e 62 134
e 63 898
e 63 637
e 63 226
e 63 237
e 63 678
e 63 232
e 64 946
e 64 222
e 64 324
e 65 994
e 65 600
e 65 844
e 65 683
e 66 622
e 66 975
e 66 799
e 66 981
e 66 748
e 67 377
e 67 965
e 67 264
e 69 193
e 69 952
e 69 471
e 69 558
e 70 307
e 70 324
e 70 374
e 72 395
e 72 712
e 72 641
e 74 551
e 74 138
e 74 812
e 75 559
e 75 154
e 75 803
e 75 286
e 75 883
e 75 583
e 76 314
e 76 413
e 76 678
e 77 551
e 77 894
e 77 853
e 77 194
e 78 220
e 78 519
e 78 718
e 78 798
e 79 548
e 79 443
e 80 923
e 80 524
e 80 937
e 80 680
e 82 796
e 82 280
e 82 606
e 82 181
e 83 868
e 83 291
e 83 711
e 83 369
e 83 160
e 86 592
e 86 715
e 86 877
e 86 780
e 86 389
e 86 323
e 88 524
e 88 246
e 88 410
e 88 797
e 88 615
e 88 854
e 88 905
e 88 890
e 90 598
e 90 548
e 90 384
e 90 143
e 91 587
e 91 774
e 92 608
e 92 393
e 92 913
e 92 759
e 92 416
e 92 578
e 93 986
e 93 344
e 93 452
e 93 355
e 93 736
e 94 100
e 94 96
e 94 439
e 94 747
e 95 619
e 95 935
e 95 971
e 96 374
e 96 787
e 96 538
e 98 998
e 98 155
e 98 451
e 98 283
e 99 956
e 99 277
e 99 368
e 99 438
e 99 679
e 99 154
e 100 675
e 100 402
e 100 695
e 100 704
e 101 964
e 101 454
e 101 518
e 101 861
e 101 600
e 102 465
e 102 347
e 102 568
e 102 461
e 102 857
e 102 528
e 103 495
e 103 914
e 103 294
e 103 699
e 103 627
e 103 551
e 103 787
e 104 414
e 104 208
e 104 947
e 104 775
e 104 789
e 105 473
e 105 253
e 105 805
e 105 933
e 105 518
e 105 942
e 105 259
e 105 950
e 107 670
e 107 900
e 107 792
e 107 589
e 107 337
e 109 551
e 109 859
e 110 158
e 110 868
e 110 695
e 110 722
e 110 658
e 110 876
e 111 507
e 111 836
e 111 665
e 112 419
e 112 947
e 112 511
e 112 912
e 113 453
e 113 797
e 113 808
e 117 807
e 117 147
e 117 170
e 117 370
e 117 393
e 118 428
e 118 338
e 118 519
e 118 953
e 119 877
e 119 382
e 119 227
e 121 149
e 121 399
e 121 600
e 121 551
e 122 898
e 122 482
e 122 670
e 123 765
e 123 878
e 123 423
e 124 752
e 124 541
e 124 862
e 124 870
e 124 614
e 125 264
e 125 546
e 125 746
e 125 648
e 125 784
e 126 216
e 126 749
e 126 183
e 126 349
e 127 204
e 127 722
e 127 301
e 127 953
e 127 288
e 129 483
e 129 519
e 129 650
e 129 935
e 129 183
e 132 633
e 132 266
e 132 767
e 132 167
e 132 330
e 132 834
e 134 479
e 134 833
e 135 782
e 135 326
e 135 724
e 136 494
e 136 744
e 136 619
e 136 257
e 138 382
e 138 301
e 139 322
e 139 931
e 139 533
e 139 465
e 139 881
e 142 513
e 142 591
e 142 656
e 143 379
e 143 281
e 143 843
e 143 833
e 144 974
e 144 615
e 144 247
e 144 498
e 145 517
e 145 356
e 146 747
e 146 254
e 146 674
e 146 503
e 146 164
e 146 330
e 146 357
e 147 301
e 147 536
e 147 322
e 147 973
e 147 489
e 147 198
e 148 609
e 148 295
e 148 465
e 148 314
e 148 571
e 148 992
e 148 428
e 148 638
e 149 512
e 149 736
e 149 466
e 152 171
e 152 617
e 152 706
e 152 722
e 153 239
e 153 598
e 153 849
e 153 936
e 153 579
e 153 924
e 154 694
e 154 742
e 154 559
e 155 561
e 155 707
e 156 667
e 156 653
e 156 516
e 157 947
e 157 158
e 157 392
e 157 667
e 158 226
e 158 605
e 158 237
e 159 765
e 159 828
e 159 716
e 159 421
e 160 582
e 160 190
e 160 574
e 160 782
e 164 981
e 164 897
e 165 278
e 165 801
e 165 913
e 167 933
e 167 964
e 167 578
e 167 718
e 169 709
e 169 458
e 169 682
e 169 958
e 169 983
e 169 807
e 169 183
e 170 311
e 170 875
e 170 277
e 170 667
e 171 676
e 171 673
e 171 350
e 171 252
e 171 912
e 173 352
e 173 263
e 173 409
e 174 818
e 174 410
e 174 577
e 174 668
e 174 915
e 174 528
e 176 473
e 176 742
e 176 443
e 178 705
e 178 684
e 178 193
e 178 206
e 179 389
e 179 291
e 179 954
e 179 912
e 179 200
e 181 243
e 181 339
e 181 670
e 181 187
e 181 799
e 181 836
e 182 734
e 182 797
e 182 408
e 182 484
e 182 720
e 185 602
e 185 214
e 185 828
e 186 358
e 186 243
e 186 538
e 187 347
e 187 717
e 187 880
e 187 591
e 187 617
e 187 439
e 188 461
e 188 880
e 188 216
e 190 440
e 190 878
e 193 645
e 193 292
e 193 366
e 193 378
e 193 771
e 193 399
e 193 968
e 194 793
e 194 794
e 194 229
e 198 844
e 198 413
e 198 933
e 198 867
e 199 394
e 199 703
e 199 722
e 199 994
e 199 393
e 199 267
e 199 509
e 199 936
e 200 937
e 200 582
e 201 314
e 201 755
e 201 896
e 201 451
e 201 859
e 201 735
e 201 957
e 201 858
e 202 954
e 202 264
e 202 537
e 202 907
e 202 929
e 203 648
e 203 486
e 203 663
e 203 611
e 203 381
e 204 338
e 204 877
e 204 412
e 204 223
e 206 437
e 206 786
e 206 349
e 208 972
e 208 561
e 208 694
e 208 667
e 208 350
e 211 607
e 211 579
e 211 714
e 211 352
e 211 858
e 211 657
e 211 312
e 212 499
e 212 265
e 212 331
e 212 841
e 212 906
e 214 591
e 214 977
e 214 694
e 214 550
e 215 265
e 215 529
e 215 622
e 215 551
e 216 821
e 216 927
e 216 844
e 216 293
e 218 611
e 218 461
e 219 842
e 219 481
e 219 896
e 219 526
e 219 309
e 220 509
e 220 483
e 220 361
e 221 901
e 221 905
e 221 574
e 221 543
e 222 574
e 222 817
e 222 980
e 223 357
e 223 442
e 223 942
e 224 437
e 224 496
e 224 944
e 224 281
e 224 871
e 225 437
e 225 981
e 226 314
e 226 382
e 226 650
e 227 416
e 227 694
e 227 885
e 229 571
e 229 914
e 230 873
e 230 756
e 230 629
e 230 473
e 231 768
e 231 464
e 231 905
e 231 530
e 232 572
e 232 722
e 234 814
e 234 854
e 234 515
e 234 603
e 235 841
e 235 844
e 235 979
e 235 508
e 235 734
e 235 408
e 235 610
e 237 302
e 237 936
e 238 866
e 238 683
e 238 359
e 238 291
e 238 266
e 239 580
e 239 664
e 239 463
e 239 675
e 239 982
e 240 286
e 240 594
e 240 706
e 242 275
e 242 274
e 242 417
e 242 399
e 243 393
e 243 806
e 243 309
e 244 573
e 244 307
e 244 954
e 246 312
e 246 481
e 246 730
e 247 586
e 247 337
e 247 867
e 247 959
e 249 522
e 249 750
e 249 922
e 249 704
e 249 331
e 249 420
e 251 465
e 251 759
e 251 669
e 251 587
e 252 984
e 252 819
e 252 701
e 252 805
e 253 855
e 253 737
e 253 717
e 253 727
e 253 676
e 254 854
e 254 550
e 254 392
e 254 736
e 255 832
e 255 903
e 257 605
e 257 654
e 257 409
e 257 782
e 257 917
e 258 391
e 258 995
e 258 720
e 259 515
e 259 755
e 259 850
e 259 533
e 259 730
e 260 711
e 260 388
e 260 713
e 260 859
e 261 424
e 261 414
e 261 805
e 261 420
e 262 528
e 262 926
e 262 852
e 262 322
e 263 349
e 263 419
e 263 769
e 263 588
e 264 417
e 264 693
e 264 635
e 265 679
e 265 942
e 265 973
e 266 546
e 266 726
e 267 291
e 267 712
e 267 286
e 267 302
e 268 572
e 268 998
e 268 835
e 268 823
e 268 292
e 268 622
e 270 916
e 270 697
e 270 603
e 272 705
e 272 528
e 272 473
e 273 528
e 273 629
e 274 609
e 275 841
e 275 951
e 275 765
e 275 410
e 276 592
e 276 303
e 276 521
e 276 281
e 277 628
e 277 866
e 277 607
e 277 723
e 277 427
e 277 871
e 277 497
e 278 465
e 278 768
e 278 971
e 278 512
e 278 878
e 280 479
e 280 877
e 280 685
e 280 520
e 281 806
e 281 714
e 281 481
e 281 706
e 283 377
e 283 525
e 283 309
e 284 650
e 284 845
e 284 744
e 286 384
e 287 488
e 287 323
e 287 435
e 287 878
e 288 984
e 288 724
e 288 821
e 289 582
e 289 798
e 289 542
e 290 736
e 290 550
e 291 374
e 292 776
e 292 428
e 292 867
e 292 995
e 292 670
e 292 619
e 292 346
e 293 967
e 293 563
e 293 345
e 294 477
e 294 357
e 294 339
e 294 811
e 295 807
e 295 833
e 295 403
e 295 580
e 295 811
e 298 884
e 298 419
e 298 355
e 300 675
e 300 358
e 300 722
e 300 821
e 300 808
e 302 481
e 303 978
e 303 371
e 303 522
e 304 635
e 304 531
e 304 306
e 306 345
e 306 540
e 306 552
e 307 514
e 307 552
e 307 537
e 308 928
e 308 546
e 308 814
e 308 476
e 308 998
e 309 944
e 309 828
e 311 494
e 311 995
e 312 662
e 312 932
e 314 435
e 314 571
e 314 983
e 314 833
e 317 503
e 317 553
e 317 929
e 317 628
e 317 410
e 320 383
e 320 946
e 320 818
e 322 797
e 322 775
e 322 899
e 322 503
e 323 371
e 323 541
e 323 801
e 323 700
e 324 749
e 324 540
e 324 955
e 324 384
e 324 781
e 325 810
e 325 350
e 325 949
e 325 357
e 326 397
e 327 941
e 327 929
e 327 874
e 327 460
e 327 372
e 328 527
e 328 768
e 328 799
e 328 904
e 330 697
e 330 975
e 330 571
e 330 966
e 330 742
e 330 349
e 330 676
e 331 749
e 331 497
e 331 488
e 331 715
e 331 861
e 332 916
e 332 510
e 332 515
e 332 395
e 332 359
e 332 599
e 332 449
e 335 503
e 335 389
e 337 945
e 337 797
e 337 965
e 338 381
e 338 701
e 338 606
e 338 395
e 338 427
e 338 506
e 339 882
e 341 565
e 341 810
e 341 605
e 341 388
e 342 578
e 342 602
e 342 741
e 343 994
e 343 624
e 343 850
e 343 549
e 343 424
e 344 883
e 344 463
e 344 413
e 345 531
e 345 528
e 346 775
e 346 657
e 346 454
e 347 951
e 348 611
e 348 926
e 348 638
e 348 973
e 348 693
e 349 397
e 349 448
e 349 361
e 349 644
e 350 902
e 350 366
e 350 398
e 352 768
e 352 736
e 354 953
e 354 365
e 354 420
e 355 865
e 355 636
e 355 649
e 356 767
e 356 520
e 357 693
e 357 565
e 357 578
e 358 439
e 358 870
e 359 667
e 361 796
e 365 723
e 365 756
e 366 841
e 366 988
e 367 465
e 367 669
e 368 498
e 368 451
e 368 618
e 368 664
e 369 716
e 369 431
e 369 975
e 370 548
e 370 811
e 370 694
e 370 663
e 370 528
e 370 742
e 371 673
e 371 888
e 372 553
e 372 984
e 372 558
e 372 497
e 372 812
e 372 605
e 372 441
e 374 449
e 374 769
e 374 591
e 374 877
e 374 561
e 374 473
e 375 826
e 375 536
e 375 783
e 377 509
e 377 996
e 378 978
e 378 729
e 378 541
e 378 981
e 378 449
e 378 763
e 379 751
e 379 545
e 379 802
e 379 586
e 380 802
e 380 413
e 381 849
e 382 748
e 383 897
e 383 559
e 383 468
e 383 966
e 384 915
e 384 924
e 385 515
e 385 495
e 385 737
e 386 992
e 386 977
e 386 885
e 386 889
e 388 715
e 388 989
e 388 405
e 388 673
e 389 425
e 389 921
e 389 712
e 389 571
e 391 602
e 391 929
e 391 995
e 391 840
e 391 897
e 391 963
e 391 786
e 392 752
e 392 995
e 392 457
e 393 626
e 393 500
e 393 736
e 394 518
e 394 451
e 395 952
e 395 784
e 395 615
e 395 637
e 397 728
e 397 865
e 398 761
e 398 467
e 398 876
e 399 408
e 399 916
e 400 919
e 400 992
e 400 519
e 400 619
e 400 498
e 401 898
e 401 522
e 402 982
e 402 468
e 403 931
e 403 534
e 405 454
e 405 594
e 405 833
e 407 807
e 407 949
e 407 428
e 407 688
e 408 711
e 408 652
e 408 414
e 409 937
e 409 882
e 409 528
e 410 668
e 410 954
e 410 605
e 412 656
e 412 543
e 412 542
e 412 709
e 413 828
e 413 996
e 416 900
e 416 550
e 417 548
e 417 714
e 417 455
e 417 520
e 417 656
e 418 506
e 418 501
e 418 726
e 419 463
e 419 932
e 419 796
e 420 950
e 420 868
e 421 798
e 423 735
e 423 578
e 423 553
e 424 978
e 424 521
e 425 545
e 427 745
e 428 445
e 428 769
e 428 855
e 431 486
e 431 903
e 432 451
e 432 479
e 433 988
e 433 596
e 433 995
e 433 855
e 433 693
e 434 663
e 434 558
e 434 963
e 434 865
e 435 565
e 435 602
e 435 712
e 435 457
e 436 720
e 436 529
e 436 593
e 437 608
e 437 756
e 437 610
e 437 896
e 438 711
e 438 825
e 438 636
e 439 787
e 439 526
e 439 817
e 440 640
e 440 608
e 440 483
e 440 933
e 441 787
e 442 914
e 442 727
e 442 858
e 442 930
e 443 496
e 443 750
e 443 974
e 445 943
e 445 622
e 445 986
e 448 482
e 449 619
e 449 959
e 451 955
e 451 749
e 451 607
e 451 682
e 452 653
e 452 711
e 452 694
e 453 979
e 453 593
e 453 674
e 453 883
e 454 554
e 454 787
e 455 825
e 455 671
e 455 943
e 457 586
e 457 995
e 458 964
e 458 908
e 458 763
e 460 513
e 463 709
e 464 610
e 464 727
e 464 618
e 464 684
e 465 705
e 465 576
e 466 615
e 466 782
e 467 726
e 467 730
e 467 754
e 467 729
e 467 494
e 468 582
e 468 981
e 471 890
e 471 881
e 471 701
e 471 871
e 473 794
e 476 659
e 476 889
e 477 665
e 477 627
e 477 706
e 479 924
e 479 781
e 479 589
e 481 751
e 481 973
e 481 592
e 483 598
e 484 713
e 484 881
e 486 772
e 488 665
e 488 589
e 494 917
e 494 629
e 495 585
e 495 781
e 496 674
e 496 899
e 496 664
e 497 565
e 497 902
e 497 612
e 497 534
e 498 843
e 498 666
e 499 533
e 499 703
e 499 810
e 500 982
e 500 988
e 501 855
e 501 746
e 503 865
e 503 918
e 503 912
e 503 971
e 506 579
e 506 521
e 507 752
e 507 543
e 507 769
e 508 708
e 508 599
e 508 588
e 509 675
e 509 843
e 509 726
e 509 573
e 509 671
e 509 946
e 510 528
e 510 724
e 510 594
e 511 841
e 511 578
e 511 989
e 511 745
e 512 652
e 513 720
e 514 877
e 514 668
e 515 920
e 515 807
e 516 556
e 516 538
e 516 906
e 517 585
e 517 697
e 517 978
e 518 880
e 518 733
e 518 883
e 518 533
e 519 554
e 520 930
e 520 825
e 522 883
e 522 847
e 522 834
e 522 712
e 524 659
e 524 856
e 525 753
e 525 636
e 525 842
e 526 957
e 527 576
e 527 840
e 528 944
e 529 632
e 529 626
e 529 752
e 529 975
e 529 828
e 530 968
e 530 815
e 531 756
e 531 862
e 531 621
e 533 811
e 533 577
e 533 909
e 534 789
e 535 821
e 535 974
e 535 700
e 535 871
e 536 577
e 536 713
e 536 625
e 536 949
e 536 635
e 537 796
e 537 865
e 538 622
e 540 958
e 540 580
e 541 585
e 541 875
e 542 868
e 543 734
e 543 850
e 543 676
e 545 585
e 545 975
e 545 817
e 546 812
e 548 668
e 549 906
e 549 908
e 549 917
e 550 753
e 550 684
e 550 883
e 552 912
e 553 580
e 554 868
e 556 793
e 556 956
e 557 589
e 557 795
e 557 590
e 557 932
e 558 629
e 558 803
e 558 959
e 558 663
e 559 928
e 559 811
e 559 584
e 559 753
e 559 957
e 560 573
e 560 568
e 560 904
e 561 715
e 561 619
e 563 584
e 563 734
e 565 936
e 568 845
e 571 856
e 571 933
e 572 716
e 572 893
e 573 776
e 573 983
e 573 968
e 573 826
e 574 756
e 574 847
e 576 736
e 576 685
e 578 898
e 578 835
e 579 640
e 579 975
e 582 745
e 582 669
e 582 793
e 583 587
e 583 874
e 583 782
e 583 693
e 584 752
e 584 933
e 585 774
e 586 953
e 586 637
e 587 978
e 587 597
e 588 888
e 588 928
e 588 704
e 589 944
e 590 792
e 590 961
e 590 885
e 591 614
e 591 826
e 592 755
e 593 894
e 593 965
e 593 608
e 594 808
e 596 885
e 597 607
e 597 655
e 598 755
e 598 873
e 598 994
e 598 951
e 598 978
e 599 612
e 600 970
e 600 752
e 602 981
e 602 690
e 602 615
e 603 836
e 605 775
e 605 666
e 605 640
e 606 769
e 606 682
e 606 735
e 607 921
e 608 819
e 608 618
e 609 736
e 609 722
e 611 682
e 614 682
e 615 805
e 615 825
e 615 693
e 617 704
e 618 723
e 618 877
e 618 870
e 619 880
e 619 920
e 621 847
e 621 771
e 622 943
e 622 801
e 624 713
e 624 858
e 624 728
e 625 649
e 626 765
e 626 979
e 626 935
e 626 857
e 627 819
e 628 858
e 628 727
e 629 955
e 629 754
e 629 734
e 632 650
e 633 799
e 633 908
e 636 870
e 637 903
e 638 876
e 641 776
e 641 709
e 644 839
e 644 694
e 644 659
e 645 737
e 649 973
e 652 905
e 653 676
e 654 970
e 654 842
e 655 729
e 655 789
e 656 840
e 657 855
e 657 916
e 657 729
e 658 832
e 658 954
e 659 748
e 659 839
e 662 823
e 662 842
e 662 782
e 663 907
e 663 858
e 665 889
e 666 918
e 669 888
e 669 878
e 670 832
e 670 915
e 671 812
e 674 923
e 674 888
e 675 724
e 676 949
e 678 698
e 678 753
e 679 714
e 682 774
e 682 947
e 683 712
e 685 843
e 688 810
e 688 780
e 690 992
e 690 852
e 693 707
e 694 994
e 694 972
e 695 722
e 695 911
e 698 912
e 698 794
e 699 718
e 699 900
e 700 882
e 703 916
e 703 763
e 704 825
e 705 712
e 706 998
e 706 874
e 707 915
e 707 714
e 708 801
e 708 771
e 711 922
e 711 714
e 711 961
e 711 942
e 712 936
e 712 926
e 712 783
e 712 997
e 712 946
e 714 973
e 714 897
e 714 986
e 715 811
e 717 967
e 717 992
e 717 956
e 718 903
e 720 966
e 722 978
e 722 947
e 722 997
e 722 759
e 723 812
e 723 840
e 723 977
e 724 731
e 724 857
e 726 913
e 726 963
e 727 996
e 727 959
e 727 763
e 728 815
e 728 731
e 729 921
e 731 928
e 733 761
e 733 972
e 733 749
e 734 902
e 741 891
e 741 952
e 742 904
e 744 788
e 746 845
e 747 880
e 749 924
e 749 917
e 749 769
e 750 971
e 756 857
e 756 909
e 761 972
e 761 856
e 763 998
e 763 870
e 767 955
e 767 843
e 767 941
e 768 885
e 769 901
e 772 861
e 774 946
e 774 951
e 775 803
e 775 906
e 775 911
e 775 798
e 780 819
e 781 857
e 781 876
e 781 936
e 782 832
e 783 898
e 783 909
e 784 952
e 784 946
e 786 927
e 786 806
e 786 798
e 786 841
e 788 914
e 789 835
e 792 800
e 794 861
e 794 800
e 795 916
e 795 995
e 795 815
e 799 989
e 799 812
e 800 807
e 801 873
e 802 918
e 803 953
e 810 823
e 811 866
e 812 917
e 814 858
e 818 980
e 819 891
e 819 823
e 819 885
e 821 964
e 821 849
e 823 875
e 828 840
e 833 881
e 833 923
e 834 850
e 835 954
e 836 865
e 839 931
e 839 847
e 839 902
e 840 941
e 841 865
e 841 884
e 842 988
e 849 956
e 850 861
e 852 901
e 853 924
e 853 981
e 857 899
e 862 975
e 862 984
e 868 923
e 870 891
e 874 965
e 874 966
e 875 970
e 881 997
e 882 937
e 884 958
e 888 917
e 899 945
e 901 950
e 903 915
e 903 926
e 903 924
e 904 980
e 904 911
e 906 979
e 906 930
e 907 979
e 907 945
e 907 946
e 909 921
e 909 995
e 912 983
e 913 958
e 916 952
e 918 945
e 919 997
e 919 967
e 922 927
e 928 961
e 931 968
e 933 996
e 936 941
e 941 992
e 952 973
e 983 997
